c clasp version 2.1.1
c Reading from pb_200_02.cnf
c Solving...
s UNKNOWN

c TIME LIMIT    : 1
c Models        : 0+    
c Time          : 18000.000s (Solving: 17999.25s 1st Model: 0.00s Unsat: 0.00s)
c CPU Time      : 17971.360s
c Choices       : 79446979
c Conflicts     : 48053207
c Restarts      : 49865  (Average: 963.67 Last: 48044996)

c Variables     : 204423 (Eliminated: 63624 Frozen:    0)
c Constraints   : 221755 (Binary: 65.2% Ternary: 33.2% Other:  1.6%)
c Lemmas        : 48053207 (Binary:  0.0% Ternary:  0.0% Other:100.0%)
c   Conflict    : 48053207 (Average Length: 71.0) 
c   Loop        : 0      (Average Length: 0.0) 
c   Other       : 0      (Average Length: 0.0)
c   Deleted     : 47910252
